30 61
29
11 5 19 51
11 4 19 47
10 19 13 0
10 7 9 54
9 16 4 0
9 9 0 52
8 5 22 56
7 25 23 0
7 13 12 41
7 12 6 17
7 7 12 34
7 5 12 29
6 24 0 28
6 18 19 29
6 11 6 29
6 10 14 19
6 5 0 23
5 21 25 25
4 23 0 0
4 10 6 42
4 2 20 25
4 2 6 40
4 1 21 27
3 6 20 19
3 5 19 56
2 12 10 40
2 7 4 16
2 1 25 46
1 4 13 25

301
True
NOT_OPTIMAL